64607.01
121 120 104 102 103 105 101 98 106 107 95 96 97 100 99 73 72 74 75 76 77 93 94 108 109 110 92 89 88 112 113 87 86 85 84 83 82 81 80 78 79 90 91 111 132 133 134 135 136 137 138 139 140 141 142 115 114 116 143 0 1 2 3 4 5 16 17 26 25 24 21 19 18 20 23 22 43 44 45 46 47 48 49 50 51 52 53 54 55 56 57 61 59 42 58 60 62 63 64 65 66 67 68 69 70 71 39 41 40 38 37 13 11 8 7 9 10 12 36 35 34 33 32 31 15 29 27 28 30 14 6 131 119 117 118 130 129 128 127 126 125 124 123 122